qbf_easy_train/easy_2039_SAT.qdimacs
p cnf 23 55
a 9 3 0
e 1 2 4 5 6 7 8 10 11 12 13 14 15 16 17 18 19 20 21 22 23 0
3 -1 0
3 2 0
1 -2 -3 0
-4 -1 0
-4 -3 0
1 3 4 0
7 5 0
7 -6 0
-5 6 -7 0
9 7 0
9 -8 0
-7 8 -9 0
10 -4 0
10 9 0
4 -9 -10 0
-11 2 -12 0
11 -2 -12 0
-11 -2 12 0
11 2 12 0
14 -11 0
14 13 0
11 -13 -14 0
15 14 0
15 6 0
-14 -6 -15 0
16 6 0
16 -15 0
-6 15 -16 0
6 -14 -17 0
-6 14 -17 0
6 14 17 0
-6 -14 17 0
14 -18 -19 0
-14 18 -19 0
14 18 19 0
-14 -18 19 0
-20 -17 0
-20 19 0
17 -19 20 0
21 16 0
21 20 0
-16 -20 -21 0
-12 -21 -22 0
12 21 -22 0
-12 21 22 0
12 -21 22 0
23 -10 0
23 22 0
10 -22 -23 0
-4 -12 7 -6 -8 -17 11 0
-21 -19 18 -20 0
-18 13 5 0
23 -12 5 0
23 17 10 19 -2 -8 0
23 0
