sat_easy_train/easy_2039_SAT.dimacs
p cnf 91 280
-2 -3 -4 0
2 3 -4 0
-2 3 4 0
2 -3 4 0
5 1 0
5 -4 0
-1 4 -5 0
8 -6 0
8 -7 0
6 7 -8 0
-9 -5 0
-9 -8 0
5 8 9 0
-12 10 0
-12 -11 0
-10 11 12 0
-13 -4 0
-13 12 0
4 -12 13 0
14 9 0
14 -13 0
-9 13 -14 0
16 11 0
16 11 0
-11 -16 0
7 -16 -17 0
-7 16 -17 0
7 16 17 0
-7 -16 17 0
-18 15 0
-18 17 0
-15 -17 18 0
20 -19 0
20 1 0
19 -1 -20 0
-21 15 0
-21 19 0
-15 -19 21 0
-22 21 0
-22 -21 0
-20 22 -23 0
20 -22 -23 0
-20 -22 23 0
20 22 23 0
24 18 0
24 23 0
-18 -23 -24 0
-25 -14 0
-25 24 0
14 -24 25 0
-26 -12 0
-26 -10 0
12 10 26 0
27 -5 0
27 26 0
5 -26 -27 0
28 -26 0
28 27 0
26 -27 -28 0
30 -29 0
30 11 0
29 -11 -30 0
32 -31 0
32 -12 0
31 12 -32 0
-6 3 -33 0
6 -3 -33 0
-6 -3 33 0
6 3 33 0
34 -32 0
34 33 0
32 -33 -34 0
5 35 -36 0
-5 -35 -36 0
5 -35 36 0
-5 35 36 0
37 13 0
37 -36 0
-13 36 -37 0
-38 17 0
-38 37 0
-17 -37 38 0
39 34 0
39 38 0
-34 -38 -39 0
41 40 0
41 -26 0
-40 26 -41 0
-12 -10 -42 0
12 10 -42 0
-12 10 42 0
12 -10 42 0
41 -42 -43 0
-41 42 -43 0
41 42 43 0
-41 -42 43 0
44 43 0
44 4 0
-43 -4 -44 0
-45 39 0
-45 44 0
-39 -44 45 0
46 27 0
46 19 0
-27 -19 -46 0
-47 35 0
-47 46 0
-35 -46 47 0
-46 -12 -48 0
46 12 -48 0
-46 12 48 0
46 -12 48 0
49 47 0
49 -48 0
-47 48 -49 0
50 -45 0
50 49 0
45 -49 -50 0
51 -30 0
51 -50 0
30 50 -51 0
53 52 0
53 -6 0
-52 6 -53 0
54 53 0
54 31 0
-53 -31 -54 0
-32 54 -55 0
32 -54 -55 0
-32 -54 55 0
32 54 55 0
-56 51 0
-56 55 0
-51 -55 56 0
-28 56 -57 0
28 -56 -57 0
-28 -56 57 0
28 56 57 0
-58 -25 0
-58 -57 0
25 57 58 0
-59 42 0
-59 4 0
-42 -4 59 0
-60 -11 0
-60 16 0
11 -16 60 0
59 -60 -61 0
-59 60 -61 0
59 60 61 0
-59 -60 61 0
-62 26 0
-62 31 0
-26 -31 62 0
62 -38 -63 0
-62 38 -63 0
62 38 63 0
-62 -38 63 0
64 -61 0
64 -63 0
61 63 -64 0
-65 -13 0
-65 -21 0
13 21 65 0
64 65 -66 0
-64 -65 -66 0
64 -65 66 0
-64 65 66 0
67 58 0
67 -66 0
-58 66 -67 0
-38 -37 -68 0
38 37 -68 0
-38 37 68 0
38 -37 68 0
69 -9 0
69 -22 0
9 22 -69 0
-71 -8 0
-71 -5 0
8 5 71 0
70 71 -72 0
-70 -71 -72 0
70 -71 72 0
-70 71 72 0
-69 72 -73 0
69 -72 -73 0
-69 -72 73 0
69 72 73 0
-6 41 -74 0
6 -41 -74 0
-6 -41 74 0
6 41 74 0
-75 27 0
-75 46 0
-27 -46 75 0
-75 38 -76 0
75 -38 -76 0
-75 -38 76 0
75 38 76 0
-19 20 -77 0
19 -20 -77 0
-19 -20 77 0
19 20 77 0
78 -3 0
78 77 0
3 -77 -78 0
-79 6 0
-79 1 0
-6 -1 79 0
-81 -79 0
-81 -80 0
79 80 81 0
82 -78 0
82 81 0
78 -81 -82 0
83 76 0
83 82 0
-76 -82 -83 0
-84 74 0
-84 83 0
-74 -83 84 0
85 11 0
85 70 0
-11 -70 -85 0
86 21 0
86 19 0
-21 -19 -86 0
-87 -85 0
-87 86 0
85 -86 87 0
88 -84 0
88 87 0
84 -87 -88 0
-89 73 0
-89 -88 0
-73 88 89 0
-90 68 0
-90 89 0
-68 -89 90 0
91 -67 0
91 90 0
67 -90 -91 0
80 62 90 29 -20 0
33 -82 41 -77 0
-78 -69 0
-14 42 -77 -16 0
85 -63 0
74 48 26 0
76 72 6 -60 10 0
59 58 -36 50 -54 -88 0
-13 -18 89 -66 -70 0
18 -90 -36 -16 15 0
83 -13 20 -82 91 2 0
63 10 -5 57 61 0
17 18 -74 55 -34 -35 0
-65 -40 23 22 67 -74 0
-18 -71 0
35 -27 -21 -40 90 86 0
-11 82 0
46 -88 -15 55 0
-2 -34 -69 0
1 -72 -50 -26 -25 -53 0
-10 -63 -68 90 -5 0
-58 -82 44 -91 54 0
-91 8 0
-15 -67 49 -87 0
79 -15 -49 -16 0
82 42 89 -55 10 -33 0
87 43 0
62 -51 -22 41 -18 -16 0
64 -80 0
-34 -39 0
15 -77 67 0
-36 -13 -89 25 -53 0
-1 -9 31 -54 72 0
85 14 -65 36 0
81 -56 -48 -68 0
-90 25 -80 0
91 0
